language ESSENCE' 1.0

letting C_FunctionND be
        [[0, 0, 0, 0, 0, 0, 0, 0, 0, 0, 0, 0, 0, 0, 0, 0, 0, 0, 0, 0, 0; int(0..20)],
         [1, 0, 0, 0, 0, 0, 0, 0, 0, 0, 0, 0, 0, 0, 0, 0, 0, 0, 0, 0, 0; int(0..20)],
         [1, 0, 0, 0, 0, 0, 0, 0, 0, 0, 0, 0, 0, 0, 0, 0, 0, 0, 0, 0, 0; int(0..20)],
         [1, 0, 0, 0, 0, 0, 0, 0, 0, 0, 0, 0, 0, 0, 0, 0, 0, 0, 0, 0, 0; int(0..20)],
         [1, 0, 0, 0, 0, 0, 0, 0, 0, 0, 0, 0, 0, 0, 0, 0, 0, 0, 0, 0, 0; int(0..20)],
         [1, 0, 0, 0, 0, 0, 0, 0, 0, 0, 0, 0, 0, 0, 0, 0, 0, 0, 0, 0, 0; int(0..20)],
         [1, 0, 0, 0, 0, 0, 0, 0, 0, 0, 0, 0, 0, 0, 0, 0, 0, 0, 0, 0, 0; int(0..20)],
         [1, 0, 0, 0, 0, 0, 0, 0, 0, 0, 0, 0, 0, 0, 0, 0, 0, 0, 0, 0, 0; int(0..20)],
         [0, 1, 1, 1, 0, 0, 0, 1, 0, 0, 0, 0, 0, 0, 0, 0, 0, 0, 0, 0, 0; int(0..20)],
         [0, 1, 0, 0, 1, 0, 1, 0, 0, 0, 0, 0, 0, 0, 0, 0, 0, 0, 0, 0, 0; int(0..20)],
         [0, 1, 0, 0, 0, 1, 0, 0, 0, 0, 0, 0, 0, 0, 0, 0, 0, 0, 0, 0, 0; int(0..20)],
         [0, 0, 1, 0, 1, 0, 0, 0, 0, 0, 0, 0, 0, 0, 0, 0, 0, 0, 0, 0, 0; int(0..20)],
         [0, 0, 1, 0, 0, 1, 0, 0, 0, 0, 0, 0, 0, 0, 0, 0, 0, 0, 0, 0, 0; int(0..20)],
         [0, 0, 1, 0, 0, 0, 1, 0, 0, 0, 0, 0, 0, 0, 0, 0, 0, 0, 0, 0, 0; int(0..20)],
         [0, 0, 0, 1, 1, 0, 0, 0, 0, 0, 0, 0, 0, 0, 0, 0, 0, 0, 0, 0, 0; int(0..20)],
         [0, 0, 0, 1, 0, 1, 0, 0, 0, 0, 0, 0, 0, 0, 0, 0, 0, 0, 0, 0, 0; int(0..20)],
         [0, 0, 0, 1, 0, 0, 1, 0, 0, 0, 0, 0, 0, 0, 0, 0, 0, 0, 0, 0, 0; int(0..20)],
         [0, 0, 0, 0, 1, 1, 0, 0, 0, 0, 0, 0, 0, 0, 0, 0, 0, 0, 0, 0, 0; int(0..20)],
         [0, 0, 0, 0, 1, 0, 0, 1, 0, 0, 0, 0, 0, 0, 0, 0, 0, 0, 0, 0, 0; int(0..20)],
         [0, 0, 0, 0, 0, 1, 1, 1, 0, 0, 0, 0, 0, 0, 0, 0, 0, 0, 0, 0, 0; int(0..20)],
         [0, 0, 0, 0, 0, 0, 0, 0, 1, 1, 1, 1, 1, 1, 1, 1, 1, 1, 1, 1, 0; int(0..20)];
             int(0..20)]
$ Visualisation for C_FunctionND
$ 0 0 0 0 0 0 0 0 0 0 0 0 0 0 0 0 0 0 0 0 0
$ 1 0 0 0 0 0 0 0 0 0 0 0 0 0 0 0 0 0 0 0 0
$ 1 0 0 0 0 0 0 0 0 0 0 0 0 0 0 0 0 0 0 0 0
$ 1 0 0 0 0 0 0 0 0 0 0 0 0 0 0 0 0 0 0 0 0
$ 1 0 0 0 0 0 0 0 0 0 0 0 0 0 0 0 0 0 0 0 0
$ 1 0 0 0 0 0 0 0 0 0 0 0 0 0 0 0 0 0 0 0 0
$ 1 0 0 0 0 0 0 0 0 0 0 0 0 0 0 0 0 0 0 0 0
$ 1 0 0 0 0 0 0 0 0 0 0 0 0 0 0 0 0 0 0 0 0
$ 0 1 1 1 0 0 0 1 0 0 0 0 0 0 0 0 0 0 0 0 0
$ 0 1 0 0 1 0 1 0 0 0 0 0 0 0 0 0 0 0 0 0 0
$ 0 1 0 0 0 1 0 0 0 0 0 0 0 0 0 0 0 0 0 0 0
$ 0 0 1 0 1 0 0 0 0 0 0 0 0 0 0 0 0 0 0 0 0
$ 0 0 1 0 0 1 0 0 0 0 0 0 0 0 0 0 0 0 0 0 0
$ 0 0 1 0 0 0 1 0 0 0 0 0 0 0 0 0 0 0 0 0 0
$ 0 0 0 1 1 0 0 0 0 0 0 0 0 0 0 0 0 0 0 0 0
$ 0 0 0 1 0 1 0 0 0 0 0 0 0 0 0 0 0 0 0 0 0
$ 0 0 0 1 0 0 1 0 0 0 0 0 0 0 0 0 0 0 0 0 0
$ 0 0 0 0 1 1 0 0 0 0 0 0 0 0 0 0 0 0 0 0 0
$ 0 0 0 0 1 0 0 1 0 0 0 0 0 0 0 0 0 0 0 0 0
$ 0 0 0 0 0 1 1 1 0 0 0 0 0 0 0 0 0 0 0 0 0
$ 0 0 0 0 0 0 0 0 1 1 1 1 1 1 1 1 1 1 1 1 0

letting J_FunctionND be
        [[0, 1, 2, 3, 4, 5, 6, 7, 8, 9, 10, 11, 12, 13, 14, 15, 16, 17, 18, 19, 20; int(0..20)],
         [1, 1, 8, 8, 9, 10, 9, 8, 8, 9, 10, 20, 20, 20, 20, 20, 20, 20, 20, 20, 20; int(0..20)],
         [2, 8, 2, 8, 11, 12, 13, 8, 8, 20, 20, 11, 12, 13, 20, 20, 20, 20, 20, 20, 20; int(0..20)],
         [3, 8, 8, 3, 14, 15, 16, 8, 8, 20, 20, 20, 20, 20, 14, 15, 16, 20, 20, 20, 20; int(0..20)],
         [4, 9, 11, 14, 4, 17, 9, 18, 20, 9, 20, 11, 20, 20, 14, 20, 20, 17, 18, 20, 20; int(0..20)],
         [5, 10, 12, 15, 17, 5, 19, 19, 20, 20, 10, 20, 12, 20, 20, 15, 20, 17, 20, 19, 20; int(0..20)],
         [6, 9, 13, 16, 9, 19, 6, 19, 20, 9, 20, 20, 20, 13, 20, 20, 16, 20, 20, 19, 20; int(0..20)],
         [7, 8, 8, 8, 18, 19, 19, 7, 8, 20, 20, 20, 20, 20, 20, 20, 20, 20, 18, 19, 20; int(0..20)],
         [8, 8, 8, 8, 20, 20, 20, 8, 8, 20, 20, 20, 20, 20, 20, 20, 20, 20, 20, 20, 20; int(0..20)],
         [9, 9, 20, 20, 9, 20, 9, 20, 20, 9, 20, 20, 20, 20, 20, 20, 20, 20, 20, 20, 20; int(0..20)],
         [10, 10, 20, 20, 20, 10, 20, 20, 20, 20, 10, 20, 20, 20, 20, 20, 20, 20, 20, 20, 20; int(0..20)],
         [11, 20, 11, 20, 11, 20, 20, 20, 20, 20, 20, 11, 20, 20, 20, 20, 20, 20, 20, 20, 20; int(0..20)],
         [12, 20, 12, 20, 20, 12, 20, 20, 20, 20, 20, 20, 12, 20, 20, 20, 20, 20, 20, 20, 20; int(0..20)],
         [13, 20, 13, 20, 20, 20, 13, 20, 20, 20, 20, 20, 20, 13, 20, 20, 20, 20, 20, 20, 20; int(0..20)],
         [14, 20, 20, 14, 14, 20, 20, 20, 20, 20, 20, 20, 20, 20, 14, 20, 20, 20, 20, 20, 20; int(0..20)],
         [15, 20, 20, 15, 20, 15, 20, 20, 20, 20, 20, 20, 20, 20, 20, 15, 20, 20, 20, 20, 20; int(0..20)],
         [16, 20, 20, 16, 20, 20, 16, 20, 20, 20, 20, 20, 20, 20, 20, 20, 16, 20, 20, 20, 20; int(0..20)],
         [17, 20, 20, 20, 17, 17, 20, 20, 20, 20, 20, 20, 20, 20, 20, 20, 20, 17, 20, 20, 20; int(0..20)],
         [18, 20, 20, 20, 18, 20, 20, 18, 20, 20, 20, 20, 20, 20, 20, 20, 20, 20, 18, 20, 20; int(0..20)],
         [19, 20, 20, 20, 20, 19, 19, 19, 20, 20, 20, 20, 20, 20, 20, 20, 20, 20, 20, 19, 20; int(0..20)],
         [20, 20, 20, 20, 20, 20, 20, 20, 20, 20, 20, 20, 20, 20, 20, 20, 20, 20, 20, 20, 20; int(0..20)];
             int(0..20)]
$ Visualisation for J_FunctionND
$  0  1  2  3  4  5  6  7  8  9 10 11 12 13 14 15 16 17 18 19 20
$  1  1  8  8  9 10  9  8  8  9 10 20 20 20 20 20 20 20 20 20 20
$  2  8  2  8 11 12 13  8  8 20 20 11 12 13 20 20 20 20 20 20 20
$  3  8  8  3 14 15 16  8  8 20 20 20 20 20 14 15 16 20 20 20 20
$  4  9 11 14  4 17  9 18 20  9 20 11 20 20 14 20 20 17 18 20 20
$  5 10 12 15 17  5 19 19 20 20 10 20 12 20 20 15 20 17 20 19 20
$  6  9 13 16  9 19  6 19 20  9 20 20 20 13 20 20 16 20 20 19 20
$  7  8  8  8 18 19 19  7  8 20 20 20 20 20 20 20 20 20 18 19 20
$  8  8  8  8 20 20 20  8  8 20 20 20 20 20 20 20 20 20 20 20 20
$  9  9 20 20  9 20  9 20 20  9 20 20 20 20 20 20 20 20 20 20 20
$ 10 10 20 20 20 10 20 20 20 20 10 20 20 20 20 20 20 20 20 20 20
$ 11 20 11 20 11 20 20 20 20 20 20 11 20 20 20 20 20 20 20 20 20
$ 12 20 12 20 20 12 20 20 20 20 20 20 12 20 20 20 20 20 20 20 20
$ 13 20 13 20 20 20 13 20 20 20 20 20 20 13 20 20 20 20 20 20 20
$ 14 20 20 14 14 20 20 20 20 20 20 20 20 20 14 20 20 20 20 20 20
$ 15 20 20 15 20 15 20 20 20 20 20 20 20 20 20 15 20 20 20 20 20
$ 16 20 20 16 20 20 16 20 20 20 20 20 20 20 20 20 16 20 20 20 20
$ 17 20 20 20 17 17 20 20 20 20 20 20 20 20 20 20 20 17 20 20 20
$ 18 20 20 20 18 20 20 18 20 20 20 20 20 20 20 20 20 20 18 20 20
$ 19 20 20 20 20 19 19 19 20 20 20 20 20 20 20 20 20 20 20 19 20
$ 20 20 20 20 20 20 20 20 20 20 20 20 20 20 20 20 20 20 20 20 20

letting M_FunctionND be
        [[0, 0, 0, 0, 0, 0, 0, 0, 0, 0, 0, 0, 0, 0, 0, 0, 0, 0, 0, 0, 0; int(0..20)],
         [0, 1, 0, 0, 0, 0, 0, 0, 1, 1, 1, 0, 0, 0, 0, 0, 0, 0, 0, 0, 1; int(0..20)],
         [0, 0, 2, 0, 0, 0, 0, 0, 2, 0, 0, 2, 2, 2, 0, 0, 0, 0, 0, 0, 2; int(0..20)],
         [0, 0, 0, 3, 0, 0, 0, 0, 3, 0, 0, 0, 0, 0, 3, 3, 3, 0, 0, 0, 3; int(0..20)],
         [0, 0, 0, 0, 4, 0, 0, 0, 0, 4, 0, 4, 0, 0, 4, 0, 0, 4, 4, 0, 4; int(0..20)],
         [0, 0, 0, 0, 0, 5, 0, 0, 0, 0, 5, 0, 5, 0, 0, 5, 0, 5, 0, 5, 5; int(0..20)],
         [0, 0, 0, 0, 0, 0, 6, 0, 0, 6, 0, 0, 0, 6, 0, 0, 6, 0, 0, 6, 6; int(0..20)],
         [0, 0, 0, 0, 0, 0, 0, 7, 7, 0, 0, 0, 0, 0, 0, 0, 0, 0, 7, 7, 7; int(0..20)],
         [0, 1, 2, 3, 0, 0, 0, 7, 8, 1, 1, 2, 2, 2, 3, 3, 3, 0, 7, 7, 8; int(0..20)],
         [0, 1, 0, 0, 4, 0, 6, 0, 1, 9, 1, 4, 0, 6, 4, 0, 6, 4, 4, 6, 9; int(0..20)],
         [0, 1, 0, 0, 0, 5, 0, 0, 1, 1, 10, 0, 5, 0, 0, 5, 0, 5, 0, 5, 10; int(0..20)],
         [0, 0, 2, 0, 4, 0, 0, 0, 2, 4, 0, 11, 2, 2, 4, 0, 0, 4, 4, 0, 11; int(0..20)],
         [0, 0, 2, 0, 0, 5, 0, 0, 2, 0, 5, 2, 12, 2, 0, 5, 0, 5, 0, 5, 12; int(0..20)],
         [0, 0, 2, 0, 0, 0, 6, 0, 2, 6, 0, 2, 2, 13, 0, 0, 6, 0, 0, 6, 13; int(0..20)],
         [0, 0, 0, 3, 4, 0, 0, 0, 3, 4, 0, 4, 0, 0, 14, 3, 3, 4, 4, 0, 14; int(0..20)],
         [0, 0, 0, 3, 0, 5, 0, 0, 3, 0, 5, 0, 5, 0, 3, 15, 3, 5, 0, 5, 15; int(0..20)],
         [0, 0, 0, 3, 0, 0, 6, 0, 3, 6, 0, 0, 0, 6, 3, 3, 16, 0, 0, 6, 16; int(0..20)],
         [0, 0, 0, 0, 4, 5, 0, 0, 0, 4, 5, 4, 5, 0, 4, 5, 0, 17, 4, 5, 17; int(0..20)],
         [0, 0, 0, 0, 4, 0, 0, 7, 7, 4, 0, 4, 0, 0, 4, 0, 0, 4, 18, 7, 18; int(0..20)],
         [0, 0, 0, 0, 0, 5, 6, 7, 7, 6, 5, 0, 5, 6, 0, 5, 6, 5, 7, 19, 19; int(0..20)],
         [0, 1, 2, 3, 4, 5, 6, 7, 8, 9, 10, 11, 12, 13, 14, 15, 16, 17, 18, 19, 20; int(0..20)];
             int(0..20)]
$ Visualisation for M_FunctionND
$  0  0  0  0  0  0  0  0  0  0  0  0  0  0  0  0  0  0  0  0  0
$  0  1  0  0  0  0  0  0  1  1  1  0  0  0  0  0  0  0  0  0  1
$  0  0  2  0  0  0  0  0  2  0  0  2  2  2  0  0  0  0  0  0  2
$  0  0  0  3  0  0  0  0  3  0  0  0  0  0  3  3  3  0  0  0  3
$  0  0  0  0  4  0  0  0  0  4  0  4  0  0  4  0  0  4  4  0  4
$  0  0  0  0  0  5  0  0  0  0  5  0  5  0  0  5  0  5  0  5  5
$  0  0  0  0  0  0  6  0  0  6  0  0  0  6  0  0  6  0  0  6  6
$  0  0  0  0  0  0  0  7  7  0  0  0  0  0  0  0  0  0  7  7  7
$  0  1  2  3  0  0  0  7  8  1  1  2  2  2  3  3  3  0  7  7  8
$  0  1  0  0  4  0  6  0  1  9  1  4  0  6  4  0  6  4  4  6  9
$  0  1  0  0  0  5  0  0  1  1 10  0  5  0  0  5  0  5  0  5 10
$  0  0  2  0  4  0  0  0  2  4  0 11  2  2  4  0  0  4  4  0 11
$  0  0  2  0  0  5  0  0  2  0  5  2 12  2  0  5  0  5  0  5 12
$  0  0  2  0  0  0  6  0  2  6  0  2  2 13  0  0  6  0  0  6 13
$  0  0  0  3  4  0  0  0  3  4  0  4  0  0 14  3  3  4  4  0 14
$  0  0  0  3  0  5  0  0  3  0  5  0  5  0  3 15  3  5  0  5 15
$  0  0  0  3  0  0  6  0  3  6  0  0  0  6  3  3 16  0  0  6 16
$  0  0  0  0  4  5  0  0  0  4  5  4  5  0  4  5  0 17  4  5 17
$  0  0  0  0  4  0  0  7  7  4  0  4  0  0  4  0  0  4 18  7 18
$  0  0  0  0  0  5  6  7  7  6  5  0  5  6  0  5  6  5  7 19 19
$  0  1  2  3  4  5  6  7  8  9 10 11 12 13 14 15 16 17 18 19 20

letting R_Function1D be [0, 1, 1, 1, 1, 1, 1, 1, 2, 2, 2, 2, 2, 2, 2, 2, 2, 2, 2, 2, 3; int(0..20)]
